100
32
13
28
15
5
27
6
4
21
4
23
8
20
22
12
15
8
9
25
25
9
15
25
17
7
4
2
1
9
17
4
7
20
3
1
7
16
4
2
22
10
3
19
1
2
3
4
1
2
3
5
1
2
17
20
21
1
2
3
1
2
4
17
20
1
7
2
4
3
18
3
1
14
18
8
5
2
6
28
19
2
3
2
1
20
6
1
3
3
2
1
4
1
32
4
18
4
15
17
3
3